c Circuit 03: Medium complexity digital logic validation
c This circuit tests interconnected logic gates with 6 variables
c Represents a combination of AND, OR, and NOT gates
c Expected: SATISFIABLE
p cnf 6 10
1 2 3 0
-1 4 0
-2 5 6 0
3 -4 5 0
-3 4 -6 0
1 -5 0
-1 -2 -3 0
2 4 -5 0
-4 5 6 0
1 2 -6 0